50
500
389
388
375
372
368
358
357
356
356
346
338
328
325
318
315
302
286
278
277
273
265
263
257
254
252
247
246
241
239
234
233
232
230
224
223
207
204
204
198
196
194
186
182
180
171
169
162
142
123
119
